3 5
14 3
14 3
9 27
6 24
21 7
7 10
7 10
1 2
1 2
1 2
13 19
4 17
4 13
4 13
17 3
24 10
5 4
2 2
6 1
11 9
4 26
4 26
2 1
2 1
2 1
4 7
7 38
3 2
3 1
3 1
4 2
4 2
4 6
5 1
1 1
3 3
3 3
5 20
5 20
6 23
7 2
11 21
8 7
6 15
13 14
3 14
5 26
9 14
10 3
10 3
1 3
14 11
14 12
18 3
7 4
2 7
7 28
30 10
14 19
5 23
15 4
10 6
6 3
5 2
2 3
9 2
7 8
32 6
6 2
26 5
6 5
13 3
